p edge 66
e 0 28
e 0 35
e 0 52
e 1 13
e 1 26
e 2 21
e 2 32
e 2 37
e 2 43
e 2 44
e 3 30
e 3 40
e 3 58
e 4 6
e 4 29
e 4 62
e 5 32
e 5 37
e 5 38
e 6 16
e 6 33
e 7 12
e 7 39
e 7 40
e 7 47
e 7 57
e 7 58
e 8 10
e 8 34
e 8 40
e 8 42
e 8 55
e 9 19
e 9 51
e 9 54
e 9 56
e 9 61
e 9 65
e 10 30
e 10 34
e 10 42
e 10 46
e 10 50
e 11 27
e 11 29
e 11 48
e 11 54
e 11 62
e 11 63
e 12 31
e 12 39
e 12 57
e 13 26
e 13 27
e 13 35
e 13 49
e 14 21
e 14 41
e 14 43
e 14 53
e 14 60
e 15 20
e 15 23
e 15 46
e 15 50
e 15 61
e 16 33
e 16 61
e 16 62
e 16 65
e 17 20
e 17 22
e 17 25
e 17 51
e 17 52
e 17 56
e 18 29
e 18 63
e 19 20
e 19 51
e 19 61
e 20 23
e 20 25
e 20 51
e 20 61
e 21 43
e 21 44
e 21 53
e 22 25
e 22 28
e 22 52
e 22 59
e 23 24
e 23 25
e 23 46
e 23 64
e 24 25
e 24 32
e 24 44
e 24 59
e 24 64
e 25 59
e 26 27
e 26 48
e 27 48
e 27 49
e 27 54
e 28 52
e 28 59
e 29 62
e 29 63
e 30 36
e 30 40
e 30 42
e 30 50
e 30 61
e 31 57
e 32 37
e 32 38
e 32 44
e 32 59
e 33 36
e 33 61
e 34 45
e 34 46
e 34 53
e 34 55
e 34 64
e 35 49
e 35 52
e 35 56
e 36 61
e 37 43
e 38 59
e 39 41
e 39 47
e 39 60
e 40 42
e 40 47
e 40 55
e 40 58
e 41 60
e 44 53
e 44 64
e 45 47
e 45 53
e 45 55
e 45 60
e 46 50
e 46 64
e 47 55
e 47 60
e 49 54
e 49 56
e 50 61
e 51 56
e 52 56
e 53 60
e 53 64
e 54 62
e 54 65
e 57 58
e 61 65
e 62 65
c k 1
